NAME : tsp_322_sol.txt
COMMENT : OR-Tools Guided Local Search
TYPE : TOUR
DIMENSION : 50
COST : 5635
STATUS : ROUTING_SUCCESS
GAP : 0.00% (Reference Solution)
TOUR_SECTION
1
8
32
27
22
44
29
38
37
7
18
33
47
6
23
20
46
26
36
13
39
11
48
14
49
35
19
2
24
31
28
45
17
16
50
25
15
5
40
10
42
30
21
34
4
9
43
12
3
41
-1
